c instance by G2
c solution = 0111101000
c Known solution cost is 2673 
p cnf 10 30
w 805 709 89 938 467 353 470 949 385 51
10 4 -6 0
10 7 -5 0
3 9 1 0
1 3 -10 0
4 10 9 0
-3 5 9 0
8 2 1 0
-7 -6 8 0
-2 7 3 0
-1 6 -2 0
3 -4 5 0
-6 -8 5 0
9 -1 5 0
-1 8 -2 0
5 10 -7 0
-6 -10 -2 0
-2 6 -10 0
-8 1 -3 0
-3 -4 2 0
2 -3 -4 0
5 -8 -6 0
7 2 8 0
4 1 -2 0
4 1 7 0
6 5 2 0
-10 -9 1 0
-9 8 4 0
1 5 8 0
-5 -8 7 0
-2 8 -9 0
